	Costo	Nv	Tiempo
1	1512,74	7	0,515
2	2648,3	18	0,688
3	3037,42	16	1,062
4	4346,06	20	1,969
5	5612,05	26	3,249
6	1459,35	12	0,515
7	2298,99	14	0,719
8	2782,25	9	1,03
9	4507,27	22	2,047
10	5908,57	27	3,266
11	4618,09	12	1,296
12	3388,6	22	1,015
13	4481,98	10	1,407
14	3631,47	19	1,047
